0001 29
0002 14
0003 23
0004 21
0005 0
0006 13
0007 11
0008 16
0009 30
0010 3
0011 17
0012 21
0013 12
0014 17
0015 30
0016 9
0017 1
0018 13
0019 31
0020 1
0021 4
0022 22
0023 0
0024 3
0025 0
0026 16
0027 16
0028 16
0029 22
0030 16
0031 16
0032 17
0033 14
0034 18
0035 19
0036 16
0037 7
0038 30
0039 3
0040 9
0041 11
0042 18
0043 4
0044 5
0045 1
0046 3
0047 4
0048 16
0049 28
0050 7
0051 5
0052 6
0053 8
0054 4
0055 17
0056 8
0057 1
0058 23
0059 22
0060 1
0061 11
0062 2
0063 6
0064 6
0065 21
0066 13
0067 16
0068 0
0069 23
0070 28
0071 9
0072 26
0073 14
0074 26
0075 28
0076 28
0077 23
0078 27
0079 4
0080 5
0081 16
0082 18
0083 13
0084 11
0085 9
0086 11
0087 21
0088 10
0089 31
0090 4
0091 0
0092 30
0093 2
0094 27
0095 24
0096 25
0097 26
0098 12
0099 16
0100 4
0101 30
0102 23
0103 25
0104 6
0105 21
0106 18
0107 7
0108 3
0109 27
0110 8
0111 14
0112 30
0113 23
0114 0
0115 22
0116 17
0117 15
0118 11
0119 23
0120 12
0121 10
0122 27
0123 6
0124 12
0125 25
0126 13
0127 0
0128 19
0129 9
0130 8
0131 4
0132 0
0133 27
0134 11
0135 21
0136 28
0137 16
0138 25
0139 3
0140 10
0141 30
0142 17
0143 4
0144 6
0145 31
0146 18
0147 24
0148 4
0149 2
0150 11
0151 1
0152 16
0153 17
0154 11
0155 9
0156 5
0157 13
0158 31
0159 12
0160 9
0161 18
0162 22
0163 19
0164 7
0165 9
0166 3
0167 1
0168 25
0169 7
0170 2
0171 15
0172 3
0173 18
0174 15
0175 23
0176 2
0177 30
0178 6
0179 11
0180 30
0181 4
0182 5
0183 0
0184 11
0185 23
0186 9
0187 15
0188 3
0189 16
0190 19
0191 14
0192 17
0193 3
0194 14
0195 13
0196 10
0197 18
0198 22
0199 25
0200 0
0201 0
0202 1
0203 20
0204 13
0205 13
0206 22
0207 27
0208 14
0209 13
0210 13
0211 22
0212 16
0213 22
0214 1
0215 25
0216 3
0217 2
0218 23
0219 0
0220 20
0221 16
0222 12
0223 10
0224 18
0225 2
0226 5
0227 4
0228 19
0229 20
0230 13
0231 14
0232 3
0233 2
0234 0
0235 1
0236 10
0237 3
0238 6
0239 26
0240 19
0241 1
0242 12
0243 20
0244 13
0245 10
0246 2
0247 8
0248 23
0249 10
0250 0
0251 0
0252 1
0253 0
0254 1
0255 20
0256 20
0257 19
0258 20
0259 20
0260 21
0261 20
0262 19
0263 2
0264 2
0265 28
0266 16
0267 26
0268 5
0269 1
0270 30
0271 29
0272 25
0273 11
0274 8
0275 10
0276 24
0277 4
0278 12
0279 10
0280 23
0281 3
0282 22
0283 23
0284 21
0285 6
0286 2
0287 16
0288 31
0289 31
0290 31
0291 31
0292 14
0293 24
0294 8
0295 3
0296 14
0297 23
0298 10
0299 4
0300 27
0301 17
0302 30
0303 31
0304 6
0305 2
0306 25
0307 20
0308 23
0309 13
0310 30
0311 29
0312 1
0313 22
0314 8
0315 11
0316 15
0317 10
0318 21
0319 19
0320 1
0321 4
0322 24
0323 26
0324 2
0325 0
0326 18
0327 1
0328 0
0329 0
0330 0
0331 0
0332 0
0333 5
0334 21
0335 29
0336 18
0337 13
0338 16
0339 15
0340 7
0341 7
0342 12
0343 26
0344 26
0345 9
0346 13
0347 11
0348 10
0349 16
0350 0
0351 31
0352 5
0353 12
0354 26
0355 8
0356 8
0357 7
0358 15
0359 17
0360 24
0361 30
0362 9
0363 14
0364 18
0365 3
0366 8
0367 13
0368 15
0369 24
0370 11
0371 0
0372 28
0373 26
0374 20
0375 18
0376 15
0377 17
0378 10
0379 14
0380 25
0381 27
0382 16
0383 0
0384 9
0385 16
0386 3
0387 10
0388 3
0389 27
0390 5
0391 12
0392 27
0393 17
0394 12
0395 14
0396 22
0397 21
0398 5
0399 21
0400 25
0401 15
0402 9
0403 3
0404 7
0405 30
0406 3
0407 18
0408 14
0409 6
0410 0
0411 6
0412 0
0413 6
0414 12
0415 4
0416 18
0417 20
0418 4
0419 28
0420 9
0421 16
0422 1
0423 24
0424 16
0425 2
0426 1
0427 19
0428 22
0429 9
0430 16
0431 23
0432 11
0433 25
0434 15
0435 1
0436 3
0437 22
0438 25
0439 0
0440 13
0441 30
0442 2
0443 1
0444 9
0445 3
0446 22
0447 7
0448 10
0449 0
0450 0
0451 5
0452 23
0453 0
0454 17
0455 12
0456 18
0457 22
0458 6
0459 10
0460 28
0461 30
0462 0
0463 5
0464 16
0465 0
0466 13
0467 9
0468 19
0469 0
0470 30
0471 1
0472 4
0473 18
0474 19
0475 25
0476 10
0477 3
0478 11
0479 9
0480 20
0481 8
0482 19
0483 0
0484 23
0485 9
0486 6
0487 13
0488 0
0489 7
0490 18
0491 1
0492 18
0493 2
0494 3
0495 2
0496 0
0497 0
0498 4
0499 30
0500 5
0501 1
0502 25
0503 11
0504 7
0505 2
0506 19
0507 16
0508 20
0509 4
0510 23
0511 25
0512 13
0513 3
0514 9
0515 19
0516 10
0517 19
0518 0
0519 0
0520 22
0521 5
0522 4
0523 19
0524 30
0525 0
0526 7
0527 7
0528 3
0529 28
0530 16
0531 20
0532 4
0533 10
0534 23
0535 19
0536 7
0537 21
0538 17
0539 23
0540 1
0541 0
0542 11
0543 16
